0 0 0 0
0 1 0 0
0 2 0 0
0 3 0 0
0 4 0 7
0 5 0 16
0 6 0 15
0 7 0 6
0 8 0 3
0 9 0 8
0 10 0 24
0 11 0 28
0 12 0 33
0 13 0 7
0 14 0 24
0 15 0 26
0 16 0 58
0 17 0 60
0 18 0 51
0 19 0 41
0 20 0 66
0 21 0 16
0 22 0 60
0 23 0 73
0 24 0 39
0 25 0 82
0 26 0 69
0 27 0 50
0 28 0 82
0 29 0 40
0 30 0 108
0 31 0 6
0 32 0 28
0 33 0 75
0 34 0 106
0 35 0 84
0 36 0 36
0 37 0 33
0 38 0 81
0 39 0 100
0 40 0 56
0 41 0 51
0 42 0 85
0 43 0 62
0 44 0 26
0 45 0 81
0 46 0 75
0 47 0 82
0 48 0 127
0 49 0 117
0 50 0 116
0 51 0 15
0 52 0 50
0 53 0 190
0 54 0 41
0 55 0 97
0 56 0 90
0 57 0 143
0 58 0 139
0 59 0 168
0 60 0 138
0 61 0 62
0 62 0 90
0 63 0 68
0 64 0 97
0 65 0 107
0 66 0 8
0 67 0 97
0 68 0 127
0 69 0 108
0 70 0 127
0 71 0 68
0 72 0 98
0 73 0 116
0 74 0 114
0 75 0 89
0 76 0 75
0 77 0 122
0 78 0 131
0 79 0 152
0 80 0 166
0 81 0 115
0 82 0 108
0 83 0 127
0 84 0 143
0 85 0 150
0 86 0 160
0 87 0 131
0 88 0 177
0 89 0 182
0 90 0 175
0 91 0 144
0 92 0 152
0 93 0 135
0 94 0 177
0 95 0 158
0 96 0 190
0 97 0 160
0 98 0 137
0 99 0 171
0 100 0 162
0 101 0 181
0 102 0 198
0 103 0 176
0 104 0 171
0 105 0 150
0 106 0 168
0 107 0 166
0 108 0 194
0 109 0 194
0 110 0 199
0 111 0 185
0 112 0 189
0 113 0 200
0 114 0 208
0 115 0 198
0 116 0 206
0 117 0 199
0 118 0 210
0 119 0 209
0 120 0 182
0 121 0 217
